c t wmc
c file mc2023_track2_109.cnf
p cnf 90 270
-22 -26 41 0
-25 52 -47 0
-21 44 13 0
78 23 16 0
-66 -69 -47 0
-54 -52 -40 0
6 -18 27 0
-42 4 84 0
-21 -76 -63 0
-88 80 27 0
30 23 8 0
45 17 24 0
-75 56 -64 0
-56 -14 80 0
71 -34 49 0
21 -20 -74 0
-87 -84 85 0
-90 -75 -57 0
65 -84 27 0
-24 79 -76 0
-42 77 4 0
3 79 69 0
39 69 -62 0
27 -77 73 0
55 7 3 0
48 -65 -22 0
39 85 -13 0
31 -19 -89 0
56 -17 -55 0
81 -80 71 0
-40 15 -10 0
-78 -85 -48 0
72 -75 3 0
52 46 -54 0
10 16 -40 0
78 -12 -21 0
-62 82 88 0
54 73 -20 0
-82 -87 -32 0
68 70 -35 0
52 -54 20 0
-30 84 -52 0
-86 -25 -27 0
63 84 7 0
36 73 45 0
-68 -63 -13 0
21 -72 34 0
36 51 -4 0
-82 -15 35 0
-15 -66 19 0
37 -90 47 0
11 -4 -82 0
-11 -69 5 0
-8 -13 23 0
-75 -69 -2 0
-5 26 -50 0
27 74 -68 0
-23 1 -73 0
-81 -89 57 0
-28 64 -24 0
14 -5 13 0
24 -66 25 0
-48 18 56 0
15 56 76 0
-9 26 -87 0
35 49 -74 0
-49 26 -81 0
37 -90 7 0
-14 42 -55 0
47 21 86 0
-31 71 -35 0
67 -49 -57 0
67 -72 52 0
89 -46 63 0
-30 44 -66 0
-7 -24 -85 0
-72 -33 82 0
7 -83 -21 0
-82 -65 83 0
-20 -73 -58 0
70 25 13 0
-13 -60 -83 0
76 67 2 0
-59 84 39 0
-64 7 -75 0
-33 -64 77 0
27 -70 -30 0
86 -25 10 0
2 90 70 0
24 -82 32 0
73 -30 46 0
66 -18 84 0
87 8 -43 0
24 -38 68 0
13 -16 56 0
13 -20 -59 0
-30 -8 -12 0
-85 -42 -86 0
18 -49 -74 0
-88 -76 44 0
43 -86 30 0
19 -13 -4 0
17 -33 -83 0
55 -28 -48 0
21 52 14 0
-33 -18 69 0
-23 3 59 0
78 -72 23 0
11 72 73 0
-49 19 32 0
71 -60 -72 0
-43 28 21 0
-46 90 -36 0
-88 -89 -65 0
60 -29 -74 0
-34 22 64 0
-57 -68 77 0
-56 42 -55 0
57 1 38 0
-46 -80 -38 0
-34 -73 -69 0
74 -83 85 0
75 59 -63 0
-5 -10 26 0
32 -52 81 0
65 -18 -87 0
33 64 -43 0
89 64 -77 0
-21 57 10 0
-90 -84 26 0
-22 66 -83 0
-11 -88 -29 0
53 8 10 0
-34 10 -18 0
32 -55 -29 0
-78 79 -16 0
-9 -89 -75 0
79 37 -75 0
-16 31 8 0
56 41 -20 0
17 -22 70 0
-33 49 22 0
-18 -73 8 0
-70 -14 51 0
34 -58 -66 0
26 6 63 0
10 -14 -31 0
-57 43 -33 0
41 -17 79 0
84 32 3 0
84 1 73 0
-3 -87 -89 0
-75 7 74 0
19 48 78 0
-53 -80 68 0
-1 83 -33 0
15 -79 -25 0
-59 56 70 0
-54 -68 -17 0
-2 -22 4 0
-61 70 27 0
3 -31 41 0
76 8 1 0
-73 -66 6 0
-60 -36 43 0
-72 45 -53 0
23 77 42 0
-27 5 -48 0
82 52 -1 0
36 -12 88 0
-66 56 -79 0
-58 -80 10 0
47 19 33 0
-82 -75 45 0
70 29 -37 0
-47 -76 -83 0
38 78 -69 0
-14 -71 -68 0
36 -69 7 0
55 73 31 0
75 -34 -42 0
-83 40 27 0
8 19 -6 0
-76 -19 21 0
80 -37 17 0
-58 73 -85 0
-34 54 -15 0
-38 81 89 0
-53 -38 -26 0
-21 -69 -40 0
-31 -49 56 0
-84 2 73 0
-58 -85 -48 0
90 -60 -43 0
8 46 39 0
64 72 -89 0
68 50 -18 0
35 -39 -61 0
27 88 76 0
51 19 -53 0
75 -69 -20 0
86 61 -74 0
9 -42 -15 0
-54 29 35 0
-33 -69 -57 0
-32 11 -40 0
-47 -87 27 0
-89 -49 -47 0
-21 -84 -33 0
78 22 -65 0
56 26 -62 0
5 43 39 0
-38 47 3 0
82 1 -18 0
66 -42 24 0
61 -38 37 0
-81 78 56 0
-5 75 50 0
19 78 -7 0
65 -20 29 0
11 -82 26 0
-42 67 -7 0
26 2 31 0
85 79 -15 0
-85 -63 69 0
-25 -75 -43 0
-43 35 -41 0
51 -58 25 0
-86 -57 10 0
-11 58 -88 0
35 -82 89 0
-18 61 -40 0
-43 13 -12 0
15 20 88 0
-37 73 -61 0
-58 -43 -37 0
-32 77 -33 0
35 -75 -90 0
16 -83 21 0
-79 -53 63 0
-27 41 -47 0
58 -55 -21 0
49 53 71 0
-74 -31 -48 0
-62 54 -5 0
3 -9 86 0
21 77 -42 0
-82 -42 -25 0
-27 -25 -74 0
-44 62 85 0
-87 2 73 0
-40 12 -16 0
-22 -63 -47 0
69 43 -53 0
-27 -65 -21 0
-31 -9 -30 0
37 7 -30 0
23 74 -44 0
41 -29 40 0
-64 79 -58 0
4 -36 -10 0
-1 13 21 0
19 1 -85 0
-58 40 64 0
-66 48 -63 0
54 -25 59 0
-2 45 80 0
89 58 -83 0
-62 -48 33 0
86 67 -34 0
c p weight 60 0.55674933 0
c p weight -60 0.44325067 0
c p weight 57 0.47968037 0
c p weight -57 0.52031963 0
c p weight 1 1 0
c p weight -1 1 0
c p weight 2 1 0
c p weight -2 1 0
c p weight 3 1 0
c p weight -3 1 0
c p weight 4 1 0
c p weight -4 1 0
c p weight 5 1 0
c p weight -5 1 0
c p weight 6 1 0
c p weight -6 1 0
c p weight 7 1 0
c p weight -7 1 0
c p weight 8 1 0
c p weight -8 1 0
c p weight 9 1 0
c p weight -9 1 0
c p weight 10 1 0
c p weight -10 1 0
c p weight 11 1 0
c p weight -11 1 0
c p weight 12 1 0
c p weight -12 1 0
c p weight 13 1 0
c p weight -13 1 0
c p weight 14 1 0
c p weight -14 1 0
c p weight 15 1 0
c p weight -15 1 0
c p weight 16 1 0
c p weight -16 1 0
c p weight 17 1 0
c p weight -17 1 0
c p weight 18 1 0
c p weight -18 1 0
c p weight 19 1 0
c p weight -19 1 0
c p weight 20 1 0
c p weight -20 1 0
c p weight 21 1 0
c p weight -21 1 0
c p weight 22 1 0
c p weight -22 1 0
c p weight 23 1 0
c p weight -23 1 0
c p weight 24 1 0
c p weight -24 1 0
c p weight 25 1 0
c p weight -25 1 0
c p weight 26 1 0
c p weight -26 1 0
c p weight 27 1 0
c p weight -27 1 0
c p weight 28 1 0
c p weight -28 1 0
c p weight 29 1 0
c p weight -29 1 0
c p weight 30 1 0
c p weight -30 1 0
c p weight 31 1 0
c p weight -31 1 0
c p weight 32 1 0
c p weight -32 1 0
c p weight 33 1 0
c p weight -33 1 0
c p weight 34 1 0
c p weight -34 1 0
c p weight 35 1 0
c p weight -35 1 0
c p weight 36 1 0
c p weight -36 1 0
c p weight 37 1 0
c p weight -37 1 0
c p weight 38 1 0
c p weight -38 1 0
c p weight 39 1 0
c p weight -39 1 0
c p weight 40 1 0
c p weight -40 1 0
c p weight 41 1 0
c p weight -41 1 0
c p weight 42 1 0
c p weight -42 1 0
c p weight 43 1 0
c p weight -43 1 0
c p weight 44 1 0
c p weight -44 1 0
c p weight 45 1 0
c p weight -45 1 0
c p weight 46 1 0
c p weight -46 1 0
c p weight 47 1 0
c p weight -47 1 0
c p weight 48 1 0
c p weight -48 1 0
c p weight 49 1 0
c p weight -49 1 0
c p weight 50 1 0
c p weight -50 1 0
c p weight 51 1 0
c p weight -51 1 0
c p weight 52 1 0
c p weight -52 1 0
c p weight 53 1 0
c p weight -53 1 0
c p weight 54 1 0
c p weight -54 1 0
c p weight 55 1 0
c p weight -55 1 0
c p weight 56 1 0
c p weight -56 1 0
c p weight 58 1 0
c p weight -58 1 0
c p weight 59 1 0
c p weight -59 1 0
c p weight 61 1 0
c p weight -61 1 0
c p weight 62 1 0
c p weight -62 1 0
c p weight 63 1 0
c p weight -63 1 0
c p weight 64 1 0
c p weight -64 1 0
c p weight 65 1 0
c p weight -65 1 0
c p weight 66 1 0
c p weight -66 1 0
c p weight 67 1 0
c p weight -67 1 0
c p weight 68 1 0
c p weight -68 1 0
c p weight 69 1 0
c p weight -69 1 0
c p weight 70 1 0
c p weight -70 1 0
c p weight 71 1 0
c p weight -71 1 0
c p weight 72 1 0
c p weight -72 1 0
c p weight 73 1 0
c p weight -73 1 0
c p weight 74 1 0
c p weight -74 1 0
c p weight 75 1 0
c p weight -75 1 0
c p weight 76 1 0
c p weight -76 1 0
c p weight 77 1 0
c p weight -77 1 0
c p weight 78 1 0
c p weight -78 1 0
c p weight 79 1 0
c p weight -79 1 0
c p weight 80 1 0
c p weight -80 1 0
c p weight 81 1 0
c p weight -81 1 0
c p weight 82 1 0
c p weight -82 1 0
c p weight 83 1 0
c p weight -83 1 0
c p weight 84 1 0
c p weight -84 1 0
c p weight 85 1 0
c p weight -85 1 0
c p weight 86 1 0
c p weight -86 1 0
c p weight 87 1 0
c p weight -87 1 0
c p weight 88 1 0
c p weight -88 1 0
c p weight 89 1 0
c p weight -89 1 0
c p weight 90 1 0
c p weight -90 1 0
